100
32
2
13
25
14
18
1
1
18
3
10
5
25
14
1
10
1
10
9
17
10
10
1
1
1
2
1
17
6
6
1
2
1
19
2
2
17
2
2
1
1
1
1
2
2
4
2
1
2
3
17
17
4
18
1
1
3
3
5
1
1
1
3
2
5
19
1
3
1
5
5
1
1
1
3
2
2
2
1
2
17
3
3
3
16
1
2
2
1
2
17
2
1
2
3
1
4
7
1
4
1